NAME : result_PSO.tour
COMMENT : Length = 200
COMMENT : Found by PSO
TYPE : TOUR
DIMENSION : 200
TOUR_SECTION
21
31
28
9
36
5
6
11
4
43
47
35
2
45
23
19
17
13
42
44
15
22
34
16
41
39
29
37
7
30
10
3
25
32
18
27
20
38
26
24
166
161
158
170
167
168
148
156
151
136
141
143
150
146
171
142
152
154
164
165
137
135
140
159
155
139
163
144
153
147
145
149
160
138
157
162
169
53
67
76
54
58
77
85
56
82
87
84
68
51
89
70
66
91
61
80
79
88
55
75
49
78
62
65
57
48
64
50
86
92
63
52
81
59
90
74
60
72
71
83
69
73
103
94
116
100
125
95
114
123
115
112
122
104
121
107
120
101
106
130
96
124
132
134
119
109
108
93
131
110
102
105
129
97
133
99
126
127
113
98
117
118
111
128
178
196
175
188
193
197
184
191
174
186
187
195
185
183
181
190
182
200
179
192
173
198
180
189
199
172
194
176
177
33
1
46
8
12
40
14
-1
EOF
